4 
5  36 
6  06 21 36 43 51 59 
7  06 14 21 29 36 44 51 59 
8  06 14 21 29 36 44 51 59 
9  06 14 21 29 36 44 51 59 
10  06 14 21 29 36 44 51 59 
11  06 14 21 29 36 44 51 59 
12  06 14 21 29 36 44 51 59 
13  06 14 21 30 37 45 52 
14  00 07 15 22 30 37 45 52 
15  00 07 15 22 30 37 45 52 
16  00 07 15 22 30 37 45 52 
17  00 07 15 22 30 37 45 52 
18  00 07 15 22 30 37 45 52 
19  00 07 15 22 29 36 44 51 59 
20  06 14 21 29 36 44 51 
21  02 17 32 47 
22  02 17 31 46 57 
23  11 26 41 56 
0 
